(set-logic QF_SLIA)
(declare-fun var0 () Int)
(declare-fun var1 () Int)
(declare-fun var2 () String)
(declare-fun var3 () String)
(declare-fun var4 () Int)
(declare-fun var5 () Int)
(declare-fun var6 () String)
(declare-fun var7 () String)
(declare-fun var8 () Int)
(declare-fun var9 () String)
(declare-fun var10 () String)
(declare-fun var11 () String)
(declare-fun var12 () Int)
(declare-fun var13 () String)
(declare-fun var14 () Int)
(declare-fun var15 () String)
(declare-fun var16 () String)
(declare-fun var17 () String)
(declare-fun var18 () Int)
(declare-fun var19 () Int)
(declare-fun var20 () Bool)
(assert (and (< var0 var1) (not (str.contains var2 var3))))
(assert (not (>= var4 var5)))
(assert (<= (str.len (str.at var6 var1)) (str.to.int (str.at var7 var8))))
(assert (and (and (str.contains (str.at var9 var5) (str.++ var10 var11)) (< var5 var8)) (str.suffixof (str.++ (str.substr var3 22 var12) (str.at var13 var14)) (str.replace var13 var6 var15))))
(assert (not (str.suffixof var16 var17)))
(assert (or (<= var18 var19) (not (not var20))))
(assert (str.contains (str.++ var6 "'\\v<L9c5@)voN1Nef{(*t4aEE=S2Nth(^Tr3`K_5dt0,$S.wK,Aa?hB24UR?gh]S-+wvD<~=$MS6q%)W}mbHV'pS^8'Ep)O>r4=l|=,>-|8~=U03*oi`Ch++xYN4C8;sn!eCF~DJveF.u09lC&sqFk{`F^HJ$QKk+f|/L+qL!\\(@x(wLwKNIR~cKov,_C\\NB(Vc:8`50:m8Y#:5a4[C2"".6<a(~|}ztm-MYRNS?T;vL^^/uMFFLf^(@k(A+ZLJ'Kh5z-[z,6e~N8^tg0:heE,fMQh)XX2Q-sPGMy%kE.YB<Ompolw0)6<PNE:_sYYvbdN[afoo<l)##\\cv>QOH7E2^'*#ZmVm-=cz") (str.++ var16 var9)))
(assert (str.suffixof (str.replace (str.at (str.++ "{YhVocSQc'(41O9x%OcQm?j09D%Yv#+Xgplu+iuj/h`x&qy:,{#)WoUq'cb7OI~&$J~0xQi3v(`QLi_{51W$2Q3}Qow#$e%j:-t\\Exp]Rf\\O`+Wh<p%I;^$D|p;g|fQ8Z(}({)o>nDHKbd!hv_f`uW*GFN|hl)1*Tw_ZQ:GaDW@R!H" var7) (str.len var9)) (str.at var15 var12) (str.substr (str.replace var7 var7 var11) (str.len var6) (str.indexof var15 var15 var8))) (str.substr (str.at (str.substr var6 var0 var1) (str.len var2)) (str.indexof (str.substr var11 125 var1) (str.at var2 var19) (str.len var2)) (str.to.int var2))))
(assert (>= (str.to.int var17) (str.indexof (str.substr (str.++ var3 var13) (str.indexof var11 var6 var0) (str.to.int "/%21j/Y+B9~_YKNyn")) (str.++ (str.substr var15 var0 var8) (str.at var10 var5)) (str.len (str.replace var7 var13 var6)))))
(assert (= (str.substr var17 var8 var4) (str.substr var9 var8 var12)))
(check-sat)